c File: data_files/evolved_graphs/g0104.col
c
c Auto generated graph
c
p edge 100 2167
e 1 5
e 1 6
e 1 7
e 1 8
e 1 9
e 1 10
e 1 12
e 1 13
e 1 14
e 1 15
e 1 17
e 1 18
e 1 21
e 1 22
e 1 23
e 1 24
e 1 26
e 1 30
e 1 31
e 1 32
e 1 34
e 1 35
e 1 36
e 1 37
e 1 38
e 1 39
e 1 40
e 1 41
e 1 42
e 1 43
e 1 44
e 1 45
e 1 47
e 1 50
e 1 51
e 1 52
e 1 54
e 1 55
e 1 57
e 1 76
e 1 78
e 1 80
e 1 81
e 1 82
e 1 83
e 1 84
e 1 85
e 1 86
e 1 87
e 1 88
e 1 89
e 1 90
e 1 91
e 1 92
e 1 93
e 1 96
e 1 97
e 1 98
e 1 100
e 2 5
e 2 6
e 2 7
e 2 8
e 2 9
e 2 10
e 2 11
e 2 12
e 2 14
e 2 15
e 2 16
e 2 17
e 2 19
e 2 20
e 2 21
e 2 22
e 2 23
e 2 24
e 2 25
e 2 28
e 2 31
e 2 34
e 2 36
e 2 37
e 2 38
e 2 39
e 2 41
e 2 42
e 2 43
e 2 44
e 2 46
e 2 47
e 2 48
e 2 49
e 2 50
e 2 51
e 2 52
e 2 54
e 2 55
e 2 56
e 2 57
e 2 58
e 2 60
e 2 63
e 2 76
e 2 78
e 2 79
e 2 81
e 2 82
e 2 83
e 2 84
e 2 85
e 2 86
e 2 87
e 2 88
e 2 89
e 2 90
e 2 91
e 2 92
e 2 93
e 2 94
e 2 95
e 2 96
e 2 97
e 2 98
e 2 99
e 2 100
e 3 5
e 3 6
e 3 7
e 3 10
e 3 11
e 3 12
e 3 13
e 3 14
e 3 15
e 3 16
e 3 17
e 3 19
e 3 20
e 3 21
e 3 22
e 3 23
e 3 24
e 3 28
e 3 29
e 3 31
e 3 32
e 3 35
e 3 37
e 3 38
e 3 39
e 3 40
e 3 41
e 3 43
e 3 45
e 3 46
e 3 47
e 3 48
e 3 49
e 3 50
e 3 51
e 3 53
e 3 54
e 3 56
e 3 57
e 3 58
e 3 61
e 3 68
e 3 71
e 3 74
e 3 75
e 3 79
e 3 80
e 3 81
e 3 82
e 3 83
e 3 84
e 3 85
e 3 86
e 3 87
e 3 88
e 3 89
e 3 90
e 3 91
e 3 92
e 3 93
e 3 94
e 3 96
e 3 99
e 3 100
e 4 5
e 4 6
e 4 7
e 4 8
e 4 9
e 4 10
e 4 11
e 4 12
e 4 14
e 4 17
e 4 18
e 4 20
e 4 21
e 4 22
e 4 24
e 4 28
e 4 29
e 4 30
e 4 31
e 4 33
e 4 34
e 4 35
e 4 36
e 4 39
e 4 40
e 4 41
e 4 42
e 4 43
e 4 44
e 4 45
e 4 47
e 4 49
e 4 50
e 4 51
e 4 53
e 4 54
e 4 55
e 4 56
e 4 57
e 4 58
e 4 61
e 4 64
e 4 67
e 4 71
e 4 78
e 4 79
e 4 80
e 4 81
e 4 82
e 4 83
e 4 84
e 4 85
e 4 86
e 4 87
e 4 88
e 4 89
e 4 90
e 4 91
e 4 92
e 4 93
e 4 95
e 4 96
e 4 100
e 5 12
e 5 13
e 5 15
e 5 17
e 5 18
e 5 19
e 5 20
e 5 21
e 5 23
e 5 24
e 5 25
e 5 26
e 5 27
e 5 28
e 5 29
e 5 30
e 5 31
e 5 32
e 5 34
e 5 35
e 5 39
e 5 40
e 5 41
e 5 42
e 5 44
e 5 45
e 5 46
e 5 47
e 5 48
e 5 50
e 5 51
e 5 52
e 5 53
e 5 54
e 5 55
e 5 56
e 5 57
e 5 58
e 5 62
e 5 65
e 5 69
e 5 72
e 5 75
e 5 76
e 5 77
e 5 78
e 5 82
e 5 83
e 5 84
e 5 85
e 5 86
e 5 87
e 5 88
e 5 90
e 5 91
e 5 92
e 5 93
e 5 95
e 5 96
e 5 97
e 5 98
e 5 100
e 6 12
e 6 15
e 6 16
e 6 18
e 6 19
e 6 20
e 6 21
e 6 22
e 6 23
e 6 24
e 6 25
e 6 26
e 6 27
e 6 28
e 6 29
e 6 30
e 6 31
e 6 32
e 6 33
e 6 34
e 6 36
e 6 39
e 6 41
e 6 42
e 6 43
e 6 45
e 6 47
e 6 49
e 6 50
e 6 52
e 6 55
e 6 56
e 6 57
e 6 58
e 6 74
e 6 75
e 6 77
e 6 78
e 6 79
e 6 83
e 6 88
e 6 90
e 6 91
e 6 93
e 6 94
e 6 95
e 6 96
e 6 99
e 7 13
e 7 14
e 7 15
e 7 16
e 7 17
e 7 18
e 7 19
e 7 20
e 7 21
e 7 22
e 7 24
e 7 25
e 7 26
e 7 28
e 7 30
e 7 31
e 7 34
e 7 35
e 7 38
e 7 40
e 7 41
e 7 42
e 7 43
e 7 45
e 7 46
e 7 47
e 7 49
e 7 50
e 7 51
e 7 52
e 7 53
e 7 54
e 7 55
e 7 56
e 7 57
e 7 58
e 7 74
e 7 75
e 7 76
e 7 80
e 7 82
e 7 85
e 7 86
e 7 88
e 7 89
e 7 90
e 7 93
e 7 94
e 7 95
e 7 97
e 7 98
e 7 99
e 7 100
e 8 9
e 8 11
e 8 12
e 8 13
e 8 14
e 8 19
e 8 21
e 8 23
e 8 26
e 8 28
e 8 29
e 8 30
e 8 32
e 8 33
e 8 34
e 8 35
e 8 36
e 8 37
e 8 38
e 8 39
e 8 40
e 8 41
e 8 42
e 8 43
e 8 45
e 8 46
e 8 48
e 8 49
e 8 50
e 8 51
e 8 52
e 8 53
e 8 55
e 8 56
e 8 58
e 8 59
e 8 60
e 8 63
e 8 71
e 8 74
e 8 76
e 8 77
e 8 78
e 8 80
e 8 85
e 8 87
e 8 89
e 8 93
e 8 94
e 8 95
e 8 96
e 8 97
e 8 98
e 8 99
e 8 100
e 9 12
e 9 13
e 9 14
e 9 15
e 9 16
e 9 17
e 9 18
e 9 20
e 9 21
e 9 22
e 9 30
e 9 41
e 9 42
e 9 43
e 9 45
e 9 46
e 9 47
e 9 48
e 9 50
e 9 52
e 9 53
e 9 55
e 9 56
e 9 57
e 9 58
e 9 59
e 9 60
e 9 61
e 9 63
e 9 64
e 9 76
e 9 77
e 9 78
e 9 80
e 9 83
e 9 90
e 9 95
e 9 96
e 9 97
e 9 98
e 9 99
e 10 12
e 10 13
e 10 14
e 10 16
e 10 18
e 10 19
e 10 20
e 10 21
e 10 22
e 10 42
e 10 43
e 10 44
e 10 45
e 10 47
e 10 48
e 10 49
e 10 50
e 10 51
e 10 52
e 10 53
e 10 54
e 10 56
e 10 58
e 10 59
e 10 74
e 10 75
e 10 76
e 10 77
e 10 79
e 10 80
e 10 81
e 10 89
e 10 95
e 10 96
e 10 97
e 10 98
e 10 99
e 11 12
e 11 13
e 11 14
e 11 15
e 11 16
e 11 17
e 11 18
e 11 19
e 11 20
e 11 21
e 11 22
e 11 41
e 11 42
e 11 43
e 11 44
e 11 45
e 11 46
e 11 47
e 11 48
e 11 49
e 11 50
e 11 51
e 11 52
e 11 53
e 11 54
e 11 57
e 11 58
e 11 59
e 11 61
e 11 62
e 11 64
e 11 65
e 11 67
e 11 68
e 11 69
e 11 71
e 11 72
e 11 73
e 11 74
e 11 75
e 11 76
e 11 77
e 11 78
e 11 79
e 11 82
e 11 83
e 11 87
e 11 89
e 11 91
e 11 93
e 11 95
e 11 96
e 11 97
e 11 98
e 11 99
e 12 23
e 12 24
e 12 25
e 12 26
e 12 27
e 12 28
e 12 29
e 12 30
e 12 31
e 12 32
e 12 33
e 12 34
e 12 35
e 12 36
e 12 37
e 12 38
e 12 39
e 12 40
e 12 42
e 12 43
e 12 45
e 12 46
e 12 47
e 12 49
e 12 50
e 12 51
e 12 52
e 12 53
e 12 56
e 12 57
e 12 59
e 12 61
e 12 62
e 12 63
e 12 64
e 12 65
e 12 68
e 12 71
e 12 72
e 12 73
e 12 74
e 12 75
e 12 76
e 12 78
e 12 79
e 12 80
e 12 83
e 12 84
e 12 87
e 12 88
e 12 89
e 12 93
e 12 94
e 12 95
e 12 98
e 12 99
e 12 100
e 13 23
e 13 24
e 13 25
e 13 26
e 13 27
e 13 28
e 13 29
e 13 30
e 13 31
e 13 32
e 13 33
e 13 34
e 13 36
e 13 37
e 13 38
e 13 39
e 13 40
e 13 41
e 13 42
e 13 43
e 13 44
e 13 46
e 13 47
e 13 48
e 13 49
e 13 50
e 13 51
e 13 53
e 13 54
e 13 57
e 13 61
e 13 62
e 13 64
e 13 68
e 13 69
e 13 71
e 13 72
e 13 73
e 13 74
e 13 75
e 13 76
e 13 77
e 13 78
e 13 79
e 13 80
e 13 82
e 13 85
e 13 86
e 13 90
e 13 92
e 13 96
e 13 97
e 13 98
e 14 17
e 14 24
e 14 26
e 14 39
e 14 44
e 14 46
e 14 47
e 14 49
e 14 51
e 14 52
e 14 53
e 14 54
e 14 55
e 14 56
e 14 57
e 14 59
e 14 60
e 14 61
e 14 62
e 14 63
e 14 64
e 14 66
e 14 68
e 14 69
e 14 72
e 14 73
e 14 74
e 14 75
e 14 76
e 14 77
e 14 78
e 14 79
e 14 80
e 14 81
e 14 84
e 14 88
e 14 95
e 14 98
e 15 23
e 15 26
e 15 28
e 15 32
e 15 39
e 15 40
e 15 44
e 15 46
e 15 54
e 15 55
e 15 56
e 15 57
e 15 58
e 15 59
e 15 63
e 15 64
e 15 68
e 15 71
e 15 72
e 15 73
e 15 74
e 15 76
e 15 77
e 15 78
e 15 79
e 15 80
e 15 86
e 15 87
e 15 91
e 15 92
e 15 94
e 15 95
e 15 96
e 15 97
e 15 99
e 15 100
e 16 27
e 16 29
e 16 36
e 16 41
e 16 43
e 16 44
e 16 46
e 16 49
e 16 50
e 16 56
e 16 57
e 16 58
e 16 59
e 16 60
e 16 61
e 16 62
e 16 63
e 16 64
e 16 65
e 16 66
e 16 67
e 16 70
e 16 72
e 16 73
e 16 74
e 16 75
e 16 77
e 16 78
e 16 79
e 16 80
e 16 81
e 16 82
e 16 93
e 16 94
e 16 95
e 16 96
e 16 100
e 17 24
e 17 29
e 17 39
e 17 42
e 17 46
e 17 48
e 17 49
e 17 52
e 17 54
e 17 55
e 17 57
e 17 58
e 17 59
e 17 60
e 17 66
e 17 69
e 17 71
e 17 72
e 17 74
e 17 75
e 17 76
e 17 77
e 17 78
e 17 79
e 17 80
e 17 83
e 17 87
e 17 88
e 17 93
e 17 94
e 17 95
e 17 96
e 17 97
e 17 98
e 17 99
e 17 100
e 18 26
e 18 30
e 18 35
e 18 42
e 18 43
e 18 44
e 18 47
e 18 50
e 18 51
e 18 55
e 18 58
e 18 59
e 18 60
e 18 61
e 18 62
e 18 67
e 18 68
e 18 69
e 18 71
e 18 72
e 18 73
e 18 74
e 18 75
e 18 76
e 18 77
e 18 78
e 18 79
e 18 83
e 18 86
e 18 91
e 18 92
e 18 96
e 18 97
e 18 98
e 19 35
e 19 42
e 19 43
e 19 49
e 19 50
e 19 51
e 19 54
e 19 55
e 19 56
e 19 59
e 19 61
e 19 62
e 19 63
e 19 70
e 19 71
e 19 72
e 19 73
e 19 74
e 19 75
e 19 76
e 19 77
e 19 78
e 19 79
e 19 80
e 19 86
e 19 88
e 19 91
e 19 93
e 19 95
e 19 96
e 19 98
e 19 100
e 20 23
e 20 24
e 20 32
e 20 36
e 20 37
e 20 39
e 20 40
e 20 41
e 20 44
e 20 54
e 20 56
e 20 57
e 20 59
e 20 60
e 20 61
e 20 62
e 20 71
e 20 73
e 20 74
e 20 75
e 20 76
e 20 77
e 20 78
e 20 79
e 20 80
e 20 87
e 20 90
e 20 91
e 20 93
e 20 94
e 20 95
e 20 96
e 20 97
e 20 98
e 20 99
e 20 100
e 21 25
e 21 27
e 21 31
e 21 33
e 21 34
e 21 37
e 21 38
e 21 40
e 21 41
e 21 42
e 21 43
e 21 47
e 21 48
e 21 49
e 21 51
e 21 54
e 21 55
e 21 59
e 21 60
e 21 63
e 21 64
e 21 66
e 21 67
e 21 68
e 21 70
e 21 71
e 21 72
e 21 73
e 21 74
e 21 75
e 21 76
e 21 77
e 21 78
e 21 79
e 21 80
e 21 81
e 21 85
e 21 86
e 21 91
e 21 93
e 21 94
e 21 95
e 21 96
e 21 97
e 21 98
e 22 23
e 22 25
e 22 36
e 22 40
e 22 42
e 22 43
e 22 44
e 22 46
e 22 54
e 22 55
e 22 57
e 22 58
e 22 62
e 22 63
e 22 64
e 22 67
e 22 68
e 22 70
e 22 71
e 22 73
e 22 74
e 22 75
e 22 76
e 22 77
e 22 79
e 22 80
e 22 81
e 22 84
e 22 94
e 22 96
e 22 97
e 22 98
e 22 99
e 22 100
e 23 24
e 23 31
e 23 45
e 23 54
e 23 55
e 23 57
e 23 60
e 23 61
e 23 62
e 23 63
e 23 64
e 23 65
e 23 67
e 23 69
e 23 70
e 23 71
e 23 72
e 23 73
e 23 74
e 23 75
e 23 76
e 23 78
e 23 79
e 23 80
e 23 81
e 23 82
e 23 83
e 23 84
e 23 88
e 23 90
e 23 91
e 23 92
e 23 93
e 23 94
e 23 95
e 23 97
e 23 98
e 23 99
e 23 100
e 24 26
e 24 56
e 24 59
e 24 62
e 24 64
e 24 65
e 24 66
e 24 67
e 24 68
e 24 69
e 24 72
e 24 73
e 24 74
e 24 75
e 24 76
e 24 77
e 24 78
e 24 79
e 24 80
e 24 81
e 24 82
e 24 83
e 24 85
e 24 86
e 24 87
e 24 88
e 24 89
e 24 90
e 24 91
e 24 93
e 24 95
e 24 98
e 24 99
e 24 100
e 25 42
e 25 50
e 25 54
e 25 57
e 25 58
e 25 59
e 25 60
e 25 62
e 25 64
e 25 65
e 25 66
e 25 67
e 25 68
e 25 69
e 25 70
e 25 71
e 25 72
e 25 73
e 25 74
e 25 75
e 25 76
e 25 77
e 25 78
e 25 79
e 25 80
e 25 84
e 25 85
e 25 86
e 25 87
e 25 88
e 25 89
e 25 93
e 25 94
e 25 95
e 25 96
e 25 97
e 25 98
e 26 55
e 26 57
e 26 58
e 26 59
e 26 60
e 26 61
e 26 63
e 26 65
e 26 66
e 26 67
e 26 68
e 26 69
e 26 71
e 26 72
e 26 73
e 26 74
e 26 75
e 26 76
e 26 78
e 26 80
e 26 81
e 26 82
e 26 84
e 26 85
e 26 86
e 26 88
e 26 89
e 26 90
e 26 93
e 26 94
e 26 95
e 26 98
e 26 99
e 27 55
e 27 57
e 27 63
e 27 64
e 27 65
e 27 67
e 27 69
e 27 70
e 27 71
e 27 72
e 27 73
e 27 74
e 27 75
e 27 76
e 27 77
e 27 78
e 27 79
e 27 80
e 27 81
e 27 82
e 27 83
e 27 84
e 27 85
e 27 86
e 27 87
e 27 88
e 27 89
e 27 90
e 27 93
e 27 94
e 27 95
e 27 97
e 27 100
e 28 34
e 28 54
e 28 58
e 28 59
e 28 60
e 28 62
e 28 64
e 28 65
e 28 66
e 28 68
e 28 69
e 28 70
e 28 71
e 28 72
e 28 73
e 28 74
e 28 75
e 28 76
e 28 77
e 28 78
e 28 79
e 28 80
e 28 81
e 28 82
e 28 83
e 28 84
e 28 85
e 28 86
e 28 87
e 28 88
e 28 89
e 28 90
e 28 91
e 28 93
e 28 94
e 28 95
e 28 96
e 28 97
e 28 98
e 28 99
e 28 100
e 29 53
e 29 65
e 29 66
e 29 67
e 29 68
e 29 69
e 29 70
e 29 71
e 29 72
e 29 73
e 29 74
e 29 76
e 29 77
e 29 78
e 29 79
e 29 80
e 29 82
e 29 83
e 29 86
e 29 87
e 29 88
e 29 89
e 29 90
e 29 92
e 29 94
e 29 97
e 29 98
e 29 99
e 29 100
e 30 34
e 30 36
e 30 43
e 30 44
e 30 64
e 30 66
e 30 67
e 30 68
e 30 69
e 30 70
e 30 71
e 30 73
e 30 74
e 30 75
e 30 76
e 30 77
e 30 78
e 30 79
e 30 80
e 30 81
e 30 82
e 30 83
e 30 85
e 30 86
e 30 87
e 30 88
e 30 91
e 30 92
e 30 93
e 30 94
e 30 95
e 30 96
e 30 97
e 30 98
e 30 99
e 30 100
e 31 47
e 31 65
e 31 66
e 31 67
e 31 69
e 31 70
e 31 71
e 31 72
e 31 73
e 31 74
e 31 75
e 31 76
e 31 77
e 31 78
e 31 79
e 31 80
e 31 81
e 31 82
e 31 83
e 31 84
e 31 85
e 31 86
e 31 90
e 31 92
e 31 93
e 31 94
e 31 95
e 31 96
e 31 97
e 31 98
e 32 45
e 32 49
e 32 55
e 32 66
e 32 67
e 32 68
e 32 69
e 32 70
e 32 71
e 32 72
e 32 73
e 32 74
e 32 75
e 32 76
e 32 77
e 32 78
e 32 80
e 32 81
e 32 82
e 32 83
e 32 84
e 32 85
e 32 87
e 32 88
e 32 89
e 32 90
e 32 91
e 32 92
e 32 97
e 32 98
e 32 99
e 32 100
e 33 55
e 33 60
e 33 65
e 33 66
e 33 67
e 33 69
e 33 70
e 33 71
e 33 72
e 33 73
e 33 74
e 33 75
e 33 76
e 33 77
e 33 78
e 33 80
e 33 81
e 33 82
e 33 83
e 33 84
e 33 85
e 33 86
e 33 87
e 33 88
e 33 90
e 33 91
e 33 92
e 33 93
e 33 95
e 33 96
e 33 97
e 33 98
e 33 99
e 33 100
e 34 58
e 34 65
e 34 66
e 34 67
e 34 68
e 34 69
e 34 70
e 34 71
e 34 72
e 34 73
e 34 74
e 34 76
e 34 77
e 34 78
e 34 79
e 34 80
e 34 81
e 34 82
e 34 83
e 34 85
e 34 87
e 34 89
e 34 90
e 34 95
e 34 96
e 34 97
e 34 98
e 34 99
e 34 100
e 35 65
e 35 66
e 35 67
e 35 68
e 35 69
e 35 70
e 35 71
e 35 72
e 35 73
e 35 75
e 35 76
e 35 77
e 35 78
e 35 79
e 35 80
e 35 81
e 35 82
e 35 83
e 35 84
e 35 86
e 35 87
e 35 88
e 35 89
e 35 90
e 35 91
e 35 92
e 35 95
e 35 96
e 35 97
e 35 98
e 35 99
e 35 100
e 36 46
e 36 65
e 36 66
e 36 67
e 36 68
e 36 69
e 36 70
e 36 71
e 36 72
e 36 73
e 36 74
e 36 75
e 36 76
e 36 77
e 36 78
e 36 79
e 36 80
e 36 82
e 36 84
e 36 85
e 36 86
e 36 87
e 36 88
e 36 89
e 36 90
e 36 91
e 36 94
e 36 95
e 36 96
e 36 97
e 36 98
e 36 99
e 36 100
e 37 65
e 37 66
e 37 67
e 37 68
e 37 69
e 37 70
e 37 71
e 37 72
e 37 73
e 37 74
e 37 75
e 37 77
e 37 79
e 37 81
e 37 82
e 37 83
e 37 85
e 37 87
e 37 88
e 37 89
e 37 90
e 37 91
e 37 92
e 37 95
e 37 96
e 37 97
e 37 98
e 37 99
e 37 100
e 38 41
e 38 47
e 38 54
e 38 65
e 38 66
e 38 67
e 38 68
e 38 69
e 38 70
e 38 71
e 38 72
e 38 73
e 38 74
e 38 75
e 38 76
e 38 77
e 38 78
e 38 79
e 38 80
e 38 81
e 38 84
e 38 87
e 38 88
e 38 89
e 38 90
e 38 91
e 38 95
e 38 96
e 38 97
e 38 98
e 38 99
e 38 100
e 39 45
e 39 50
e 39 54
e 39 66
e 39 67
e 39 69
e 39 70
e 39 71
e 39 73
e 39 74
e 39 75
e 39 76
e 39 77
e 39 78
e 39 79
e 39 80
e 39 81
e 39 82
e 39 83
e 39 84
e 39 85
e 39 86
e 39 87
e 39 88
e 39 89
e 39 90
e 39 91
e 39 92
e 39 99
e 40 63
e 40 66
e 40 67
e 40 69
e 40 70
e 40 71
e 40 72
e 40 73
e 40 74
e 40 75
e 40 76
e 40 78
e 40 79
e 40 80
e 40 81
e 40 82
e 40 83
e 40 84
e 40 85
e 40 86
e 40 87
e 40 88
e 40 89
e 40 90
e 40 91
e 40 93
e 40 96
e 40 97
e 40 98
e 41 57
e 41 61
e 41 63
e 41 65
e 41 67
e 41 68
e 41 69
e 41 70
e 41 71
e 41 72
e 41 73
e 41 74
e 41 75
e 41 76
e 41 77
e 41 78
e 41 79
e 41 81
e 41 82
e 41 83
e 41 85
e 41 87
e 41 88
e 41 89
e 41 90
e 41 91
e 41 92
e 41 93
e 41 97
e 42 61
e 42 65
e 42 67
e 42 68
e 42 69
e 42 70
e 42 71
e 42 72
e 42 73
e 42 74
e 42 75
e 42 77
e 42 78
e 42 79
e 42 80
e 42 81
e 42 82
e 42 83
e 42 84
e 42 87
e 42 88
e 42 89
e 42 90
e 42 93
e 42 94
e 43 51
e 43 53
e 43 65
e 43 66
e 43 67
e 43 68
e 43 70
e 43 72
e 43 73
e 43 74
e 43 75
e 43 76
e 43 77
e 43 78
e 43 79
e 43 80
e 43 81
e 43 82
e 43 83
e 43 84
e 43 85
e 43 86
e 43 87
e 43 88
e 43 90
e 43 93
e 43 95
e 43 97
e 43 99
e 44 52
e 44 53
e 44 63
e 44 65
e 44 66
e 44 67
e 44 68
e 44 69
e 44 70
e 44 71
e 44 72
e 44 73
e 44 74
e 44 75
e 44 77
e 44 78
e 44 79
e 44 80
e 44 81
e 44 82
e 44 83
e 44 84
e 44 86
e 44 87
e 44 88
e 44 89
e 44 90
e 44 93
e 44 97
e 45 51
e 45 52
e 45 60
e 45 61
e 45 65
e 45 66
e 45 67
e 45 68
e 45 69
e 45 71
e 45 72
e 45 73
e 45 74
e 45 75
e 45 76
e 45 77
e 45 78
e 45 79
e 45 80
e 45 81
e 45 82
e 45 83
e 45 84
e 45 85
e 45 86
e 45 87
e 45 88
e 45 89
e 45 90
e 45 93
e 45 99
e 46 51
e 46 52
e 46 53
e 46 66
e 46 67
e 46 68
e 46 69
e 46 71
e 46 72
e 46 73
e 46 74
e 46 75
e 46 76
e 46 77
e 46 79
e 46 80
e 46 81
e 46 82
e 46 83
e 46 85
e 46 86
e 46 87
e 46 88
e 46 89
e 46 90
e 46 94
e 46 100
e 47 48
e 47 51
e 47 53
e 47 59
e 47 65
e 47 66
e 47 67
e 47 68
e 47 69
e 47 70
e 47 71
e 47 72
e 47 74
e 47 75
e 47 76
e 47 78
e 47 79
e 47 80
e 47 81
e 47 82
e 47 83
e 47 84
e 47 85
e 47 86
e 47 87
e 47 88
e 47 89
e 47 90
e 47 93
e 47 94
e 47 95
e 47 96
e 47 98
e 47 99
e 48 51
e 48 52
e 48 53
e 48 54
e 48 57
e 48 58
e 48 65
e 48 67
e 48 68
e 48 69
e 48 70
e 48 71
e 48 72
e 48 73
e 48 74
e 48 75
e 48 76
e 48 77
e 48 78
e 48 79
e 48 80
e 48 81
e 48 82
e 48 83
e 48 84
e 48 85
e 48 87
e 48 88
e 48 89
e 48 90
e 48 95
e 48 96
e 48 97
e 48 99
e 48 100
e 49 50
e 49 51
e 49 52
e 49 58
e 49 60
e 49 61
e 49 62
e 49 65
e 49 66
e 49 67
e 49 68
e 49 69
e 49 70
e 49 72
e 49 73
e 49 74
e 49 75
e 49 76
e 49 77
e 49 78
e 49 79
e 49 81
e 49 82
e 49 83
e 49 84
e 49 85
e 49 86
e 49 87
e 49 88
e 49 89
e 49 90
e 49 94
e 49 98
e 49 99
e 50 51
e 50 54
e 50 65
e 50 67
e 50 68
e 50 69
e 50 70
e 50 71
e 50 72
e 50 73
e 50 74
e 50 75
e 50 76
e 50 77
e 50 78
e 50 79
e 50 80
e 50 81
e 50 82
e 50 83
e 50 84
e 50 85
e 50 86
e 50 87
e 50 88
e 50 89
e 50 90
e 50 94
e 51 65
e 51 66
e 51 67
e 51 68
e 51 69
e 51 71
e 51 72
e 51 74
e 51 75
e 51 76
e 51 77
e 51 78
e 51 79
e 51 80
e 51 81
e 51 82
e 51 83
e 51 84
e 51 85
e 51 86
e 51 87
e 51 88
e 51 89
e 51 90
e 51 97
e 52 65
e 52 66
e 52 67
e 52 68
e 52 69
e 52 70
e 52 72
e 52 73
e 52 74
e 52 75
e 52 76
e 52 77
e 52 78
e 52 79
e 52 80
e 52 81
e 52 82
e 52 83
e 52 84
e 52 85
e 52 86
e 52 87
e 52 88
e 52 89
e 52 90
e 52 93
e 52 100
e 53 63
e 53 65
e 53 68
e 53 69
e 53 70
e 53 71
e 53 72
e 53 73
e 53 74
e 53 75
e 53 76
e 53 77
e 53 78
e 53 79
e 53 80
e 53 84
e 53 85
e 53 86
e 53 89
e 53 90
e 53 93
e 53 94
e 53 95
e 53 96
e 53 97
e 53 98
e 53 99
e 53 100
e 54 88
e 55 57
e 55 87
e 55 88
e 55 89
e 56 57
e 56 88
e 56 89
e 56 90
e 57 87
e 57 88
e 57 89
e 58 76
e 58 88
e 58 89
e 58 90
e 58 91
e 59 63
e 59 67
e 59 89
e 59 90
e 60 80
e 60 87
e 60 88
e 60 89
e 60 91
e 61 63
e 62 88
e 62 89
e 63 87
e 63 88
e 63 89
e 63 91
e 64 88
e 64 89
e 64 90
e 64 91
e 64 97
e 65 82
e 65 87
e 65 88
e 65 89
e 65 90
e 65 91
e 66 81
e 66 85
e 66 89
e 66 90
e 66 91
e 66 95
e 67 71
e 67 88
e 67 89
e 67 90
e 67 91
e 68 88
e 68 89
e 68 91
e 69 87
e 69 88
e 69 89
e 69 90
e 70 77
e 70 78
e 70 85
e 70 88
e 70 90
e 70 91
e 71 87
e 71 88
e 71 89
e 71 90
e 71 91
e 72 88
e 72 89
e 72 90
e 73 85
e 73 87
e 73 88
e 73 89
e 73 90
e 73 91
e 74 85
e 74 88
e 74 91
e 75 83
e 75 86
e 75 88
e 75 90
e 75 91
e 76 87
e 76 89
e 76 90
e 76 91
e 77 87
e 77 88
e 77 89
e 77 90
e 77 91
e 78 84
e 78 87
e 78 88
e 78 89
e 78 90
e 78 91
e 79 87
e 79 88
e 79 89
e 79 90
e 79 91
e 79 97
e 80 87
e 80 88
e 80 89
e 80 91
e 81 86
e 81 87
e 81 88
e 81 89
e 81 90
e 81 91
e 82 87
e 82 88
e 82 89
e 82 90
e 82 91
e 83 87
e 83 88
e 83 89
e 83 90
e 83 94
e 84 87
e 84 89
e 84 90
e 84 91
e 85 88
e 85 89
e 85 90
e 86 87
e 86 89
e 86 90
e 86 91
e 87 88
e 87 89
e 87 91
e 88 90
e 88 91
e 89 90
e 89 91
e 90 96
e 91 99
e 92 98
e 96 98
